(set-logic QF_LRA)
(declare-fun X0 () Real )
(declare-fun Y0 () Real )
(declare-fun X1 () Real )
(declare-fun Y1 () Real )
(declare-fun X2 () Real )
(declare-fun Y2 () Real )
(declare-fun X3 () Real )
(declare-fun Y3 () Real )
(declare-fun X4 () Real )
(declare-fun Y4 () Real )
(declare-fun X5 () Real )
(declare-fun Y5 () Real )
(declare-fun X6 () Real )
(declare-fun Y6 () Real )
(declare-fun X7 () Real )
(declare-fun Y7 () Real )
(declare-fun X8 () Real )
(declare-fun Y8 () Real )
(declare-fun X9 () Real )
(declare-fun Y9 () Real )
(declare-fun X10 () Real )
(declare-fun Y10 () Real )
(declare-fun X11 () Real )
(declare-fun Y11 () Real )
(declare-fun X12 () Real )
(declare-fun Y12 () Real )
(declare-fun X13 () Real )
(declare-fun Y13 () Real )
(declare-fun X14 () Real )
(declare-fun Y14 () Real )
(declare-fun X15 () Real )
(declare-fun Y15 () Real )
(declare-fun X16 () Real )
(declare-fun Y16 () Real )
(declare-fun X17 () Real )
(declare-fun Y17 () Real )
(declare-fun Z () Real )
(declare-fun k () Real )
(assert (let
(( $goal (>= Z k) ))
(let
((
$phi ( and 
( or ( <= ( + X0 59 ) X1 )  ( <= ( + X1 24 ) X0 )  ( <= ( + Y0 20 ) Y1 )  ( <= ( + Y1 90 ) Y0 )  )
( or ( <= ( + X0 59 ) X2 )  ( <= ( + X2 12 ) X0 )  ( <= ( + Y0 20 ) Y2 )  ( <= ( + Y2 67 ) Y0 )  )
( or ( <= ( + X0 59 ) X3 )  ( <= ( + X3 10 ) X0 )  ( <= ( + Y0 20 ) Y3 )  ( <= ( + Y3 95 ) Y0 )  )
( or ( <= ( + X0 59 ) X4 )  ( <= ( + X4 58 ) X0 )  ( <= ( + Y0 20 ) Y4 )  ( <= ( + Y4 57 ) Y0 )  )
( or ( <= ( + X0 59 ) X5 )  ( <= ( + X5 22 ) X0 )  ( <= ( + Y0 20 ) Y5 )  ( <= ( + Y5 23 ) Y0 )  )
( or ( <= ( + X0 59 ) X6 )  ( <= ( + X6 83 ) X0 )  ( <= ( + Y0 20 ) Y6 )  ( <= ( + Y6 86 ) Y0 )  )
( or ( <= ( + X0 59 ) X7 )  ( <= ( + X7 41 ) X0 )  ( <= ( + Y0 20 ) Y7 )  ( <= ( + Y7 68 ) Y0 )  )
( or ( <= ( + X0 59 ) X8 )  ( <= ( + X8 96 ) X0 )  ( <= ( + Y0 20 ) Y8 )  ( <= ( + Y8 12 ) Y0 )  )
( or ( <= ( + X0 59 ) X9 )  ( <= ( + X9 85 ) X0 )  ( <= ( + Y0 20 ) Y9 )  ( <= ( + Y9 59 ) Y0 )  )
( or ( <= ( + X0 59 ) X10 )  ( <= ( + X10 100 ) X0 )  ( <= ( + Y0 20 ) Y10 )  ( <= ( + Y10 46 ) Y0 )  )
( or ( <= ( + X0 59 ) X11 )  ( <= ( + X11 58 ) X0 )  ( <= ( + Y0 20 ) Y11 )  ( <= ( + Y11 46 ) Y0 )  )
( or ( <= ( + X0 59 ) X12 )  ( <= ( + X12 17 ) X0 )  ( <= ( + Y0 20 ) Y12 )  ( <= ( + Y12 7 ) Y0 )  )
( or ( <= ( + X0 59 ) X13 )  ( <= ( + X13 17 ) X0 )  ( <= ( + Y0 20 ) Y13 )  ( <= ( + Y13 56 ) Y0 )  )
( or ( <= ( + X0 59 ) X14 )  ( <= ( + X14 31 ) X0 )  ( <= ( + Y0 20 ) Y14 )  ( <= ( + Y14 22 ) Y0 )  )
( or ( <= ( + X0 59 ) X15 )  ( <= ( + X15 72 ) X0 )  ( <= ( + Y0 20 ) Y15 )  ( <= ( + Y15 71 ) Y0 )  )
( or ( <= ( + X0 59 ) X16 )  ( <= ( + X16 48 ) X0 )  ( <= ( + Y0 20 ) Y16 )  ( <= ( + Y16 65 ) Y0 )  )
( or ( <= ( + X0 59 ) X17 )  ( <= ( + X17 3 ) X0 )  ( <= ( + Y0 20 ) Y17 )  ( <= ( + Y17 31 ) Y0 )  )
( or ( <= ( + X1 24 ) X2 )  ( <= ( + X2 12 ) X1 )  ( <= ( + Y1 90 ) Y2 )  ( <= ( + Y2 67 ) Y1 )  )
( or ( <= ( + X1 24 ) X3 )  ( <= ( + X3 10 ) X1 )  ( <= ( + Y1 90 ) Y3 )  ( <= ( + Y3 95 ) Y1 )  )
( or ( <= ( + X1 24 ) X4 )  ( <= ( + X4 58 ) X1 )  ( <= ( + Y1 90 ) Y4 )  ( <= ( + Y4 57 ) Y1 )  )
( or ( <= ( + X1 24 ) X5 )  ( <= ( + X5 22 ) X1 )  ( <= ( + Y1 90 ) Y5 )  ( <= ( + Y5 23 ) Y1 )  )
( or ( <= ( + X1 24 ) X6 )  ( <= ( + X6 83 ) X1 )  ( <= ( + Y1 90 ) Y6 )  ( <= ( + Y6 86 ) Y1 )  )
( or ( <= ( + X1 24 ) X7 )  ( <= ( + X7 41 ) X1 )  ( <= ( + Y1 90 ) Y7 )  ( <= ( + Y7 68 ) Y1 )  )
( or ( <= ( + X1 24 ) X8 )  ( <= ( + X8 96 ) X1 )  ( <= ( + Y1 90 ) Y8 )  ( <= ( + Y8 12 ) Y1 )  )
( or ( <= ( + X1 24 ) X9 )  ( <= ( + X9 85 ) X1 )  ( <= ( + Y1 90 ) Y9 )  ( <= ( + Y9 59 ) Y1 )  )
( or ( <= ( + X1 24 ) X10 )  ( <= ( + X10 100 ) X1 )  ( <= ( + Y1 90 ) Y10 )  ( <= ( + Y10 46 ) Y1 )  )
( or ( <= ( + X1 24 ) X11 )  ( <= ( + X11 58 ) X1 )  ( <= ( + Y1 90 ) Y11 )  ( <= ( + Y11 46 ) Y1 )  )
( or ( <= ( + X1 24 ) X12 )  ( <= ( + X12 17 ) X1 )  ( <= ( + Y1 90 ) Y12 )  ( <= ( + Y12 7 ) Y1 )  )
( or ( <= ( + X1 24 ) X13 )  ( <= ( + X13 17 ) X1 )  ( <= ( + Y1 90 ) Y13 )  ( <= ( + Y13 56 ) Y1 )  )
( or ( <= ( + X1 24 ) X14 )  ( <= ( + X14 31 ) X1 )  ( <= ( + Y1 90 ) Y14 )  ( <= ( + Y14 22 ) Y1 )  )
( or ( <= ( + X1 24 ) X15 )  ( <= ( + X15 72 ) X1 )  ( <= ( + Y1 90 ) Y15 )  ( <= ( + Y15 71 ) Y1 )  )
( or ( <= ( + X1 24 ) X16 )  ( <= ( + X16 48 ) X1 )  ( <= ( + Y1 90 ) Y16 )  ( <= ( + Y16 65 ) Y1 )  )
( or ( <= ( + X1 24 ) X17 )  ( <= ( + X17 3 ) X1 )  ( <= ( + Y1 90 ) Y17 )  ( <= ( + Y17 31 ) Y1 )  )
( or ( <= ( + X2 12 ) X3 )  ( <= ( + X3 10 ) X2 )  ( <= ( + Y2 67 ) Y3 )  ( <= ( + Y3 95 ) Y2 )  )
( or ( <= ( + X2 12 ) X4 )  ( <= ( + X4 58 ) X2 )  ( <= ( + Y2 67 ) Y4 )  ( <= ( + Y4 57 ) Y2 )  )
( or ( <= ( + X2 12 ) X5 )  ( <= ( + X5 22 ) X2 )  ( <= ( + Y2 67 ) Y5 )  ( <= ( + Y5 23 ) Y2 )  )
( or ( <= ( + X2 12 ) X6 )  ( <= ( + X6 83 ) X2 )  ( <= ( + Y2 67 ) Y6 )  ( <= ( + Y6 86 ) Y2 )  )
( or ( <= ( + X2 12 ) X7 )  ( <= ( + X7 41 ) X2 )  ( <= ( + Y2 67 ) Y7 )  ( <= ( + Y7 68 ) Y2 )  )
( or ( <= ( + X2 12 ) X8 )  ( <= ( + X8 96 ) X2 )  ( <= ( + Y2 67 ) Y8 )  ( <= ( + Y8 12 ) Y2 )  )
( or ( <= ( + X2 12 ) X9 )  ( <= ( + X9 85 ) X2 )  ( <= ( + Y2 67 ) Y9 )  ( <= ( + Y9 59 ) Y2 )  )
( or ( <= ( + X2 12 ) X10 )  ( <= ( + X10 100 ) X2 )  ( <= ( + Y2 67 ) Y10 )  ( <= ( + Y10 46 ) Y2 )  )
( or ( <= ( + X2 12 ) X11 )  ( <= ( + X11 58 ) X2 )  ( <= ( + Y2 67 ) Y11 )  ( <= ( + Y11 46 ) Y2 )  )
( or ( <= ( + X2 12 ) X12 )  ( <= ( + X12 17 ) X2 )  ( <= ( + Y2 67 ) Y12 )  ( <= ( + Y12 7 ) Y2 )  )
( or ( <= ( + X2 12 ) X13 )  ( <= ( + X13 17 ) X2 )  ( <= ( + Y2 67 ) Y13 )  ( <= ( + Y13 56 ) Y2 )  )
( or ( <= ( + X2 12 ) X14 )  ( <= ( + X14 31 ) X2 )  ( <= ( + Y2 67 ) Y14 )  ( <= ( + Y14 22 ) Y2 )  )
( or ( <= ( + X2 12 ) X15 )  ( <= ( + X15 72 ) X2 )  ( <= ( + Y2 67 ) Y15 )  ( <= ( + Y15 71 ) Y2 )  )
( or ( <= ( + X2 12 ) X16 )  ( <= ( + X16 48 ) X2 )  ( <= ( + Y2 67 ) Y16 )  ( <= ( + Y16 65 ) Y2 )  )
( or ( <= ( + X2 12 ) X17 )  ( <= ( + X17 3 ) X2 )  ( <= ( + Y2 67 ) Y17 )  ( <= ( + Y17 31 ) Y2 )  )
( or ( <= ( + X3 10 ) X4 )  ( <= ( + X4 58 ) X3 )  ( <= ( + Y3 95 ) Y4 )  ( <= ( + Y4 57 ) Y3 )  )
( or ( <= ( + X3 10 ) X5 )  ( <= ( + X5 22 ) X3 )  ( <= ( + Y3 95 ) Y5 )  ( <= ( + Y5 23 ) Y3 )  )
( or ( <= ( + X3 10 ) X6 )  ( <= ( + X6 83 ) X3 )  ( <= ( + Y3 95 ) Y6 )  ( <= ( + Y6 86 ) Y3 )  )
( or ( <= ( + X3 10 ) X7 )  ( <= ( + X7 41 ) X3 )  ( <= ( + Y3 95 ) Y7 )  ( <= ( + Y7 68 ) Y3 )  )
( or ( <= ( + X3 10 ) X8 )  ( <= ( + X8 96 ) X3 )  ( <= ( + Y3 95 ) Y8 )  ( <= ( + Y8 12 ) Y3 )  )
( or ( <= ( + X3 10 ) X9 )  ( <= ( + X9 85 ) X3 )  ( <= ( + Y3 95 ) Y9 )  ( <= ( + Y9 59 ) Y3 )  )
( or ( <= ( + X3 10 ) X10 )  ( <= ( + X10 100 ) X3 )  ( <= ( + Y3 95 ) Y10 )  ( <= ( + Y10 46 ) Y3 )  )
( or ( <= ( + X3 10 ) X11 )  ( <= ( + X11 58 ) X3 )  ( <= ( + Y3 95 ) Y11 )  ( <= ( + Y11 46 ) Y3 )  )
( or ( <= ( + X3 10 ) X12 )  ( <= ( + X12 17 ) X3 )  ( <= ( + Y3 95 ) Y12 )  ( <= ( + Y12 7 ) Y3 )  )
( or ( <= ( + X3 10 ) X13 )  ( <= ( + X13 17 ) X3 )  ( <= ( + Y3 95 ) Y13 )  ( <= ( + Y13 56 ) Y3 )  )
( or ( <= ( + X3 10 ) X14 )  ( <= ( + X14 31 ) X3 )  ( <= ( + Y3 95 ) Y14 )  ( <= ( + Y14 22 ) Y3 )  )
( or ( <= ( + X3 10 ) X15 )  ( <= ( + X15 72 ) X3 )  ( <= ( + Y3 95 ) Y15 )  ( <= ( + Y15 71 ) Y3 )  )
( or ( <= ( + X3 10 ) X16 )  ( <= ( + X16 48 ) X3 )  ( <= ( + Y3 95 ) Y16 )  ( <= ( + Y16 65 ) Y3 )  )
( or ( <= ( + X3 10 ) X17 )  ( <= ( + X17 3 ) X3 )  ( <= ( + Y3 95 ) Y17 )  ( <= ( + Y17 31 ) Y3 )  )
( or ( <= ( + X4 58 ) X5 )  ( <= ( + X5 22 ) X4 )  ( <= ( + Y4 57 ) Y5 )  ( <= ( + Y5 23 ) Y4 )  )
( or ( <= ( + X4 58 ) X6 )  ( <= ( + X6 83 ) X4 )  ( <= ( + Y4 57 ) Y6 )  ( <= ( + Y6 86 ) Y4 )  )
( or ( <= ( + X4 58 ) X7 )  ( <= ( + X7 41 ) X4 )  ( <= ( + Y4 57 ) Y7 )  ( <= ( + Y7 68 ) Y4 )  )
( or ( <= ( + X4 58 ) X8 )  ( <= ( + X8 96 ) X4 )  ( <= ( + Y4 57 ) Y8 )  ( <= ( + Y8 12 ) Y4 )  )
( or ( <= ( + X4 58 ) X9 )  ( <= ( + X9 85 ) X4 )  ( <= ( + Y4 57 ) Y9 )  ( <= ( + Y9 59 ) Y4 )  )
( or ( <= ( + X4 58 ) X10 )  ( <= ( + X10 100 ) X4 )  ( <= ( + Y4 57 ) Y10 )  ( <= ( + Y10 46 ) Y4 )  )
( or ( <= ( + X4 58 ) X11 )  ( <= ( + X11 58 ) X4 )  ( <= ( + Y4 57 ) Y11 )  ( <= ( + Y11 46 ) Y4 )  )
( or ( <= ( + X4 58 ) X12 )  ( <= ( + X12 17 ) X4 )  ( <= ( + Y4 57 ) Y12 )  ( <= ( + Y12 7 ) Y4 )  )
( or ( <= ( + X4 58 ) X13 )  ( <= ( + X13 17 ) X4 )  ( <= ( + Y4 57 ) Y13 )  ( <= ( + Y13 56 ) Y4 )  )
( or ( <= ( + X4 58 ) X14 )  ( <= ( + X14 31 ) X4 )  ( <= ( + Y4 57 ) Y14 )  ( <= ( + Y14 22 ) Y4 )  )
( or ( <= ( + X4 58 ) X15 )  ( <= ( + X15 72 ) X4 )  ( <= ( + Y4 57 ) Y15 )  ( <= ( + Y15 71 ) Y4 )  )
( or ( <= ( + X4 58 ) X16 )  ( <= ( + X16 48 ) X4 )  ( <= ( + Y4 57 ) Y16 )  ( <= ( + Y16 65 ) Y4 )  )
( or ( <= ( + X4 58 ) X17 )  ( <= ( + X17 3 ) X4 )  ( <= ( + Y4 57 ) Y17 )  ( <= ( + Y17 31 ) Y4 )  )
( or ( <= ( + X5 22 ) X6 )  ( <= ( + X6 83 ) X5 )  ( <= ( + Y5 23 ) Y6 )  ( <= ( + Y6 86 ) Y5 )  )
( or ( <= ( + X5 22 ) X7 )  ( <= ( + X7 41 ) X5 )  ( <= ( + Y5 23 ) Y7 )  ( <= ( + Y7 68 ) Y5 )  )
( or ( <= ( + X5 22 ) X8 )  ( <= ( + X8 96 ) X5 )  ( <= ( + Y5 23 ) Y8 )  ( <= ( + Y8 12 ) Y5 )  )
( or ( <= ( + X5 22 ) X9 )  ( <= ( + X9 85 ) X5 )  ( <= ( + Y5 23 ) Y9 )  ( <= ( + Y9 59 ) Y5 )  )
( or ( <= ( + X5 22 ) X10 )  ( <= ( + X10 100 ) X5 )  ( <= ( + Y5 23 ) Y10 )  ( <= ( + Y10 46 ) Y5 )  )
( or ( <= ( + X5 22 ) X11 )  ( <= ( + X11 58 ) X5 )  ( <= ( + Y5 23 ) Y11 )  ( <= ( + Y11 46 ) Y5 )  )
( or ( <= ( + X5 22 ) X12 )  ( <= ( + X12 17 ) X5 )  ( <= ( + Y5 23 ) Y12 )  ( <= ( + Y12 7 ) Y5 )  )
( or ( <= ( + X5 22 ) X13 )  ( <= ( + X13 17 ) X5 )  ( <= ( + Y5 23 ) Y13 )  ( <= ( + Y13 56 ) Y5 )  )
( or ( <= ( + X5 22 ) X14 )  ( <= ( + X14 31 ) X5 )  ( <= ( + Y5 23 ) Y14 )  ( <= ( + Y14 22 ) Y5 )  )
( or ( <= ( + X5 22 ) X15 )  ( <= ( + X15 72 ) X5 )  ( <= ( + Y5 23 ) Y15 )  ( <= ( + Y15 71 ) Y5 )  )
( or ( <= ( + X5 22 ) X16 )  ( <= ( + X16 48 ) X5 )  ( <= ( + Y5 23 ) Y16 )  ( <= ( + Y16 65 ) Y5 )  )
( or ( <= ( + X5 22 ) X17 )  ( <= ( + X17 3 ) X5 )  ( <= ( + Y5 23 ) Y17 )  ( <= ( + Y17 31 ) Y5 )  )
( or ( <= ( + X6 83 ) X7 )  ( <= ( + X7 41 ) X6 )  ( <= ( + Y6 86 ) Y7 )  ( <= ( + Y7 68 ) Y6 )  )
( or ( <= ( + X6 83 ) X8 )  ( <= ( + X8 96 ) X6 )  ( <= ( + Y6 86 ) Y8 )  ( <= ( + Y8 12 ) Y6 )  )
( or ( <= ( + X6 83 ) X9 )  ( <= ( + X9 85 ) X6 )  ( <= ( + Y6 86 ) Y9 )  ( <= ( + Y9 59 ) Y6 )  )
( or ( <= ( + X6 83 ) X10 )  ( <= ( + X10 100 ) X6 )  ( <= ( + Y6 86 ) Y10 )  ( <= ( + Y10 46 ) Y6 )  )
( or ( <= ( + X6 83 ) X11 )  ( <= ( + X11 58 ) X6 )  ( <= ( + Y6 86 ) Y11 )  ( <= ( + Y11 46 ) Y6 )  )
( or ( <= ( + X6 83 ) X12 )  ( <= ( + X12 17 ) X6 )  ( <= ( + Y6 86 ) Y12 )  ( <= ( + Y12 7 ) Y6 )  )
( or ( <= ( + X6 83 ) X13 )  ( <= ( + X13 17 ) X6 )  ( <= ( + Y6 86 ) Y13 )  ( <= ( + Y13 56 ) Y6 )  )
( or ( <= ( + X6 83 ) X14 )  ( <= ( + X14 31 ) X6 )  ( <= ( + Y6 86 ) Y14 )  ( <= ( + Y14 22 ) Y6 )  )
( or ( <= ( + X6 83 ) X15 )  ( <= ( + X15 72 ) X6 )  ( <= ( + Y6 86 ) Y15 )  ( <= ( + Y15 71 ) Y6 )  )
( or ( <= ( + X6 83 ) X16 )  ( <= ( + X16 48 ) X6 )  ( <= ( + Y6 86 ) Y16 )  ( <= ( + Y16 65 ) Y6 )  )
( or ( <= ( + X6 83 ) X17 )  ( <= ( + X17 3 ) X6 )  ( <= ( + Y6 86 ) Y17 )  ( <= ( + Y17 31 ) Y6 )  )
( or ( <= ( + X7 41 ) X8 )  ( <= ( + X8 96 ) X7 )  ( <= ( + Y7 68 ) Y8 )  ( <= ( + Y8 12 ) Y7 )  )
( or ( <= ( + X7 41 ) X9 )  ( <= ( + X9 85 ) X7 )  ( <= ( + Y7 68 ) Y9 )  ( <= ( + Y9 59 ) Y7 )  )
( or ( <= ( + X7 41 ) X10 )  ( <= ( + X10 100 ) X7 )  ( <= ( + Y7 68 ) Y10 )  ( <= ( + Y10 46 ) Y7 )  )
( or ( <= ( + X7 41 ) X11 )  ( <= ( + X11 58 ) X7 )  ( <= ( + Y7 68 ) Y11 )  ( <= ( + Y11 46 ) Y7 )  )
( or ( <= ( + X7 41 ) X12 )  ( <= ( + X12 17 ) X7 )  ( <= ( + Y7 68 ) Y12 )  ( <= ( + Y12 7 ) Y7 )  )
( or ( <= ( + X7 41 ) X13 )  ( <= ( + X13 17 ) X7 )  ( <= ( + Y7 68 ) Y13 )  ( <= ( + Y13 56 ) Y7 )  )
( or ( <= ( + X7 41 ) X14 )  ( <= ( + X14 31 ) X7 )  ( <= ( + Y7 68 ) Y14 )  ( <= ( + Y14 22 ) Y7 )  )
( or ( <= ( + X7 41 ) X15 )  ( <= ( + X15 72 ) X7 )  ( <= ( + Y7 68 ) Y15 )  ( <= ( + Y15 71 ) Y7 )  )
( or ( <= ( + X7 41 ) X16 )  ( <= ( + X16 48 ) X7 )  ( <= ( + Y7 68 ) Y16 )  ( <= ( + Y16 65 ) Y7 )  )
( or ( <= ( + X7 41 ) X17 )  ( <= ( + X17 3 ) X7 )  ( <= ( + Y7 68 ) Y17 )  ( <= ( + Y17 31 ) Y7 )  )
( or ( <= ( + X8 96 ) X9 )  ( <= ( + X9 85 ) X8 )  ( <= ( + Y8 12 ) Y9 )  ( <= ( + Y9 59 ) Y8 )  )
( or ( <= ( + X8 96 ) X10 )  ( <= ( + X10 100 ) X8 )  ( <= ( + Y8 12 ) Y10 )  ( <= ( + Y10 46 ) Y8 )  )
( or ( <= ( + X8 96 ) X11 )  ( <= ( + X11 58 ) X8 )  ( <= ( + Y8 12 ) Y11 )  ( <= ( + Y11 46 ) Y8 )  )
( or ( <= ( + X8 96 ) X12 )  ( <= ( + X12 17 ) X8 )  ( <= ( + Y8 12 ) Y12 )  ( <= ( + Y12 7 ) Y8 )  )
( or ( <= ( + X8 96 ) X13 )  ( <= ( + X13 17 ) X8 )  ( <= ( + Y8 12 ) Y13 )  ( <= ( + Y13 56 ) Y8 )  )
( or ( <= ( + X8 96 ) X14 )  ( <= ( + X14 31 ) X8 )  ( <= ( + Y8 12 ) Y14 )  ( <= ( + Y14 22 ) Y8 )  )
( or ( <= ( + X8 96 ) X15 )  ( <= ( + X15 72 ) X8 )  ( <= ( + Y8 12 ) Y15 )  ( <= ( + Y15 71 ) Y8 )  )
( or ( <= ( + X8 96 ) X16 )  ( <= ( + X16 48 ) X8 )  ( <= ( + Y8 12 ) Y16 )  ( <= ( + Y16 65 ) Y8 )  )
( or ( <= ( + X8 96 ) X17 )  ( <= ( + X17 3 ) X8 )  ( <= ( + Y8 12 ) Y17 )  ( <= ( + Y17 31 ) Y8 )  )
( or ( <= ( + X9 85 ) X10 )  ( <= ( + X10 100 ) X9 )  ( <= ( + Y9 59 ) Y10 )  ( <= ( + Y10 46 ) Y9 )  )
( or ( <= ( + X9 85 ) X11 )  ( <= ( + X11 58 ) X9 )  ( <= ( + Y9 59 ) Y11 )  ( <= ( + Y11 46 ) Y9 )  )
( or ( <= ( + X9 85 ) X12 )  ( <= ( + X12 17 ) X9 )  ( <= ( + Y9 59 ) Y12 )  ( <= ( + Y12 7 ) Y9 )  )
( or ( <= ( + X9 85 ) X13 )  ( <= ( + X13 17 ) X9 )  ( <= ( + Y9 59 ) Y13 )  ( <= ( + Y13 56 ) Y9 )  )
( or ( <= ( + X9 85 ) X14 )  ( <= ( + X14 31 ) X9 )  ( <= ( + Y9 59 ) Y14 )  ( <= ( + Y14 22 ) Y9 )  )
( or ( <= ( + X9 85 ) X15 )  ( <= ( + X15 72 ) X9 )  ( <= ( + Y9 59 ) Y15 )  ( <= ( + Y15 71 ) Y9 )  )
( or ( <= ( + X9 85 ) X16 )  ( <= ( + X16 48 ) X9 )  ( <= ( + Y9 59 ) Y16 )  ( <= ( + Y16 65 ) Y9 )  )
( or ( <= ( + X9 85 ) X17 )  ( <= ( + X17 3 ) X9 )  ( <= ( + Y9 59 ) Y17 )  ( <= ( + Y17 31 ) Y9 )  )
( or ( <= ( + X10 100 ) X11 )  ( <= ( + X11 58 ) X10 )  ( <= ( + Y10 46 ) Y11 )  ( <= ( + Y11 46 ) Y10 )  )
( or ( <= ( + X10 100 ) X12 )  ( <= ( + X12 17 ) X10 )  ( <= ( + Y10 46 ) Y12 )  ( <= ( + Y12 7 ) Y10 )  )
( or ( <= ( + X10 100 ) X13 )  ( <= ( + X13 17 ) X10 )  ( <= ( + Y10 46 ) Y13 )  ( <= ( + Y13 56 ) Y10 )  )
( or ( <= ( + X10 100 ) X14 )  ( <= ( + X14 31 ) X10 )  ( <= ( + Y10 46 ) Y14 )  ( <= ( + Y14 22 ) Y10 )  )
( or ( <= ( + X10 100 ) X15 )  ( <= ( + X15 72 ) X10 )  ( <= ( + Y10 46 ) Y15 )  ( <= ( + Y15 71 ) Y10 )  )
( or ( <= ( + X10 100 ) X16 )  ( <= ( + X16 48 ) X10 )  ( <= ( + Y10 46 ) Y16 )  ( <= ( + Y16 65 ) Y10 )  )
( or ( <= ( + X10 100 ) X17 )  ( <= ( + X17 3 ) X10 )  ( <= ( + Y10 46 ) Y17 )  ( <= ( + Y17 31 ) Y10 )  )
( or ( <= ( + X11 58 ) X12 )  ( <= ( + X12 17 ) X11 )  ( <= ( + Y11 46 ) Y12 )  ( <= ( + Y12 7 ) Y11 )  )
( or ( <= ( + X11 58 ) X13 )  ( <= ( + X13 17 ) X11 )  ( <= ( + Y11 46 ) Y13 )  ( <= ( + Y13 56 ) Y11 )  )
( or ( <= ( + X11 58 ) X14 )  ( <= ( + X14 31 ) X11 )  ( <= ( + Y11 46 ) Y14 )  ( <= ( + Y14 22 ) Y11 )  )
( or ( <= ( + X11 58 ) X15 )  ( <= ( + X15 72 ) X11 )  ( <= ( + Y11 46 ) Y15 )  ( <= ( + Y15 71 ) Y11 )  )
( or ( <= ( + X11 58 ) X16 )  ( <= ( + X16 48 ) X11 )  ( <= ( + Y11 46 ) Y16 )  ( <= ( + Y16 65 ) Y11 )  )
( or ( <= ( + X11 58 ) X17 )  ( <= ( + X17 3 ) X11 )  ( <= ( + Y11 46 ) Y17 )  ( <= ( + Y17 31 ) Y11 )  )
( or ( <= ( + X12 17 ) X13 )  ( <= ( + X13 17 ) X12 )  ( <= ( + Y12 7 ) Y13 )  ( <= ( + Y13 56 ) Y12 )  )
( or ( <= ( + X12 17 ) X14 )  ( <= ( + X14 31 ) X12 )  ( <= ( + Y12 7 ) Y14 )  ( <= ( + Y14 22 ) Y12 )  )
( or ( <= ( + X12 17 ) X15 )  ( <= ( + X15 72 ) X12 )  ( <= ( + Y12 7 ) Y15 )  ( <= ( + Y15 71 ) Y12 )  )
( or ( <= ( + X12 17 ) X16 )  ( <= ( + X16 48 ) X12 )  ( <= ( + Y12 7 ) Y16 )  ( <= ( + Y16 65 ) Y12 )  )
( or ( <= ( + X12 17 ) X17 )  ( <= ( + X17 3 ) X12 )  ( <= ( + Y12 7 ) Y17 )  ( <= ( + Y17 31 ) Y12 )  )
( or ( <= ( + X13 17 ) X14 )  ( <= ( + X14 31 ) X13 )  ( <= ( + Y13 56 ) Y14 )  ( <= ( + Y14 22 ) Y13 )  )
( or ( <= ( + X13 17 ) X15 )  ( <= ( + X15 72 ) X13 )  ( <= ( + Y13 56 ) Y15 )  ( <= ( + Y15 71 ) Y13 )  )
( or ( <= ( + X13 17 ) X16 )  ( <= ( + X16 48 ) X13 )  ( <= ( + Y13 56 ) Y16 )  ( <= ( + Y16 65 ) Y13 )  )
( or ( <= ( + X13 17 ) X17 )  ( <= ( + X17 3 ) X13 )  ( <= ( + Y13 56 ) Y17 )  ( <= ( + Y17 31 ) Y13 )  )
( or ( <= ( + X14 31 ) X15 )  ( <= ( + X15 72 ) X14 )  ( <= ( + Y14 22 ) Y15 )  ( <= ( + Y15 71 ) Y14 )  )
( or ( <= ( + X14 31 ) X16 )  ( <= ( + X16 48 ) X14 )  ( <= ( + Y14 22 ) Y16 )  ( <= ( + Y16 65 ) Y14 )  )
( or ( <= ( + X14 31 ) X17 )  ( <= ( + X17 3 ) X14 )  ( <= ( + Y14 22 ) Y17 )  ( <= ( + Y17 31 ) Y14 )  )
( or ( <= ( + X15 72 ) X16 )  ( <= ( + X16 48 ) X15 )  ( <= ( + Y15 71 ) Y16 )  ( <= ( + Y16 65 ) Y15 )  )
( or ( <= ( + X15 72 ) X17 )  ( <= ( + X17 3 ) X15 )  ( <= ( + Y15 71 ) Y17 )  ( <= ( + Y17 31 ) Y15 )  )
( or ( <= ( + X16 48 ) X17 )  ( <= ( + X17 3 ) X16 )  ( <= ( + Y16 65 ) Y17 )  ( <= ( + Y17 31 ) Y16 )  )
( >= X0 0)
( <= ( + X0 59) Z)
( >= Y0 0)
( <= ( + Y0 20 ) 100)
( >= X1 0)
( <= ( + X1 24) Z)
( >= Y1 0)
( <= ( + Y1 90 ) 100)
( >= X2 0)
( <= ( + X2 12) Z)
( >= Y2 0)
( <= ( + Y2 67 ) 100)
( >= X3 0)
( <= ( + X3 10) Z)
( >= Y3 0)
( <= ( + Y3 95 ) 100)
( >= X4 0)
( <= ( + X4 58) Z)
( >= Y4 0)
( <= ( + Y4 57 ) 100)
( >= X5 0)
( <= ( + X5 22) Z)
( >= Y5 0)
( <= ( + Y5 23 ) 100)
( >= X6 0)
( <= ( + X6 83) Z)
( >= Y6 0)
( <= ( + Y6 86 ) 100)
( >= X7 0)
( <= ( + X7 41) Z)
( >= Y7 0)
( <= ( + Y7 68 ) 100)
( >= X8 0)
( <= ( + X8 96) Z)
( >= Y8 0)
( <= ( + Y8 12 ) 100)
( >= X9 0)
( <= ( + X9 85) Z)
( >= Y9 0)
( <= ( + Y9 59 ) 100)
( >= X10 0)
( <= ( + X10 100) Z)
( >= Y10 0)
( <= ( + Y10 46 ) 100)
( >= X11 0)
( <= ( + X11 58) Z)
( >= Y11 0)
( <= ( + Y11 46 ) 100)
( >= X12 0)
( <= ( + X12 17) Z)
( >= Y12 0)
( <= ( + Y12 7 ) 100)
( >= X13 0)
( <= ( + X13 17) Z)
( >= Y13 0)
( <= ( + Y13 56 ) 100)
( >= X14 0)
( <= ( + X14 31) Z)
( >= Y14 0)
( <= ( + Y14 22 ) 100)
( >= X15 0)
( <= ( + X15 72) Z)
( >= Y15 0)
( <= ( + Y15 71 ) 100)
( >= X16 0)
( <= ( + X16 48) Z)
( >= Y16 0)
( <= ( + Y16 65 ) 100)
( >= X17 0)
( <= ( + X17 3) Z)
( >= Y17 0)
( <= ( + Y17 31 ) 100)
) )
)(=> $phi $goal))))